ATOMIC_SPECIES
Si	1	Si_ONCV_PBE_FR-1.1.upf					#Pseudopotentials are downloaded from http://www.quantum-simulation.org/potentials/sg15_oncv/upf/

NUMERICAL_ORBITAL
orb_Si.dat

LATTICE_CONSTANT
1.889766

LATTICE_VECTORS
0.0	20	20
20	0.0	20
20	20	0.0

ATOMIC_POSITIONS
Direct

Si
0
1
0 0 0 0 0 0
